c A SAT instance generated from a 3-CNF formula that had 33 clauses and 11 variables
p cnf 11 33
-9 -4 -5 0
7 2 9 0
-9 -7 -5 0
6 11 -4 0
-4 3 -11 0
8 -10 5 0
-11 6 -8 0
5 11 4 0
7 9 -11 0
-3 -5 -8 0
11 9 2 0
3 7 -1 0
2 8 -11 0
-11 8 4 0
-3 10 -5 0
2 10 -4 0
-4 11 1 0
5 8 6 0
-4 9 -11 0
-5 -2 -6 0
-8 9 -6 0
3 -8 -6 0
10 2 6 0
-9 -1 -2 0
-7 -9 4 0
10 1 8 0
4 3 1 0
7 4 -8 0
-3 -1 -7 0
-8 11 -4 0
4 10 -7 0
5 -8 -6 0
-1 8 10 0
